Data path: /scratch/opt/lxu/CFLG/benchmarks/tree_A
Instance: treeA.200.10
Result path: /scratch/opt/lxu/CFLG/results/tree_A
Solver: Gurobi
Time limit: 7200
Formulation: EF
Cover: Large
julia --project=. src/main.jl /scratch/opt/lxu/CFLG/benchmarks/tree_A treeA.200.10 /scratch/opt/lxu/CFLG/results/tree_A Gurobi 7200 EF Large
The latest version of Julia in the `release` channel is 1.11.5+0.x64.linux.gnu. You currently have `1.11.4+0.x64.linux.gnu` installed. Run:

  juliaup update

in your terminal shell to install Julia 1.11.5+0.x64.linux.gnu and update the `release` channel to that version.
/scratch/opt/lxu/CFLG/benchmarks/tree_A Gurobi 7200.0 /scratch/opt/lxu/CFLG/results/tree_A treeA.200.10 EF Large
/scratch/opt/lxu/CFLG/benchmarks/tree_A/treeA.200.10

 read graph
data loaded

problem_graph/original graph: node: 200/200 edge: 209/209 dlt: 3.007579533011168 break_avg_len: 1.503789766505584 break_max_len: 1.984402562727856elapsed CPU time: 0.050285 seconds
Set parameter TokenServer to value "solice01.zib.de"
Set parameter Threads to value 1
Set parameter OutputFlag to value 1
Set parameter MIPGap to value 0.0001
Set parameter TimeLimit to value 7199.949715

 model loaded

Gurobi Optimizer version 12.0.1 build v12.0.1rc0 (linux64 - "Debian GNU/Linux 12 (bookworm)")

CPU model: Intel(R) Xeon(R) Gold 5122 CPU @ 3.60GHz, instruction set [SSE2|AVX|AVX2|AVX512]
Thread count: 8 physical cores, 16 logical processors, using up to 1 threads

Non-default parameters:
TimeLimit  7199.949715
Threads  1

Optimize a model with 27591553 rows, 9336866 columns and 73479593 nonzeros
Model fingerprint: 0x16d609d3
Variable types: 125609 continuous, 9211257 integer (9211257 binary)
Coefficient statistics:
  Matrix range     [1e+00, 1e+02]
  Objective range  [1e+00, 1e+00]
  Bounds range     [1e+00, 2e+00]
  RHS range        [4e-03, 1e+02]
slurmstepd-htc-cmp468: error: Detected 1 oom_kill event in StepId=14623121.0. Some of the step tasks have been OOM Killed.
srun: error: htc-cmp468: task 0: Out Of Memory
